WARNING: for repeatability, setting FPU to use double precision
============================[ Problem Statistics ]=============================
|                                                                             |
|  Number of variables:        219904                                         |
|  Number of clauses:          512116                                         |
|  Parse time:                   0.16 s                                       |
|                                                                             |
============================[ Search Statistics ]==============================
| Conflicts |          ORIGINAL         |          LEARNT          | Progress |
|           |    Vars  Clauses Literals |    Limit  Clauses Lit/Cl |          |
===============================================================================
|       100 |  121922   491637  1103796 |   180266      100     12 | 44.557 % |
|       250 |  121922   491637  1103796 |   198293      250     25 | 44.557 % |
|       475 |  121922   491637  1103796 |   218122      475     54 | 44.557 % |
===============================================================================
restarts              : 6
conflicts             : 735            (1531 /sec)
decisions             : 14831          (0.00 % random) (30896 /sec)
propagations          : 2265442        (4719376 /sec)
conflict literals     : 34221          (3.71 % deleted)
Memory used           : 57.00 MB
CPU time              : 0.48003 s

SATISFIABLE
